num_wann = 12
num_bands = 12
spinors = .true.
#num_iter = 0
exclude_bands =1-24,37-38
##shell_list 1
search_shells=50
kmesh_tol 0.00001
use_ws_distance = .true.
write_hr = .true.
write_xyz = .true.
write_tb = .true.

conv_tol = 1e-10
dis_conv_tol = 1e-10

fermi_energy        = -0.5144
dis_num_iter      =  1000
dis_win_min = -3.5
dis_win_max = 2.25
dis_froz_min = -3.5 # add dis_win_min/max
dis_froz_max = 2.25
num_iter          = 2000
dis_mix_ratio = 0.5
guiding_centres = true

begin projections
Bi:pz, px, py
end projections

begin unit_cell_cart
Angstrom
    4.2974468664     0.0000000000     0.0000000000
   -2.1487234332     3.7216981577     0.0000000000
    0.0000000000     0.0000000000    21.6662769578
end unit_cell_cart

begin atoms_cart
Angstrom
Bi       0.0000000000     2.4811321053     0.8731947866999992
Bi       2.1487234333     1.2405660526     -0.873194786700001
end atoms_cart

mp_grid =    40 40 1

begin kpoints
  0.00000000  0.00000000  0.00000000
  0.00000000  0.02500000  0.00000000
  0.00000000  0.05000000  0.00000000
  0.00000000  0.07500000  0.00000000
  0.00000000  0.10000000  0.00000000
  0.00000000  0.12500000  0.00000000
  0.00000000  0.15000000  0.00000000
  0.00000000  0.17500000  0.00000000
  0.00000000  0.20000000  0.00000000
  0.00000000  0.22500000  0.00000000
  0.00000000  0.25000000  0.00000000
  0.00000000  0.27500000  0.00000000
  0.00000000  0.30000000  0.00000000
  0.00000000  0.32500000  0.00000000
  0.00000000  0.35000000  0.00000000
  0.00000000  0.37500000  0.00000000
  0.00000000  0.40000000  0.00000000
  0.00000000  0.42500000  0.00000000
  0.00000000  0.45000000  0.00000000
  0.00000000  0.47500000  0.00000000
  0.00000000  0.50000000  0.00000000
  0.00000000  0.52500000  0.00000000
  0.00000000  0.55000000  0.00000000
  0.00000000  0.57500000  0.00000000
  0.00000000  0.60000000  0.00000000
  0.00000000  0.62500000  0.00000000
  0.00000000  0.65000000  0.00000000
  0.00000000  0.67500000  0.00000000
  0.00000000  0.70000000  0.00000000
  0.00000000  0.72500000  0.00000000
  0.00000000  0.75000000  0.00000000
  0.00000000  0.77500000  0.00000000
  0.00000000  0.80000000  0.00000000
  0.00000000  0.82500000  0.00000000
  0.00000000  0.85000000  0.00000000
  0.00000000  0.87500000  0.00000000
  0.00000000  0.90000000  0.00000000
  0.00000000  0.92500000  0.00000000
  0.00000000  0.95000000  0.00000000
  0.00000000  0.97500000  0.00000000
  0.02500000  0.00000000  0.00000000
  0.02500000  0.02500000  0.00000000
  0.02500000  0.05000000  0.00000000
  0.02500000  0.07500000  0.00000000
  0.02500000  0.10000000  0.00000000
  0.02500000  0.12500000  0.00000000
  0.02500000  0.15000000  0.00000000
  0.02500000  0.17500000  0.00000000
  0.02500000  0.20000000  0.00000000
  0.02500000  0.22500000  0.00000000
  0.02500000  0.25000000  0.00000000
  0.02500000  0.27500000  0.00000000
  0.02500000  0.30000000  0.00000000
  0.02500000  0.32500000  0.00000000
  0.02500000  0.35000000  0.00000000
  0.02500000  0.37500000  0.00000000
  0.02500000  0.40000000  0.00000000
  0.02500000  0.42500000  0.00000000
  0.02500000  0.45000000  0.00000000
  0.02500000  0.47500000  0.00000000
  0.02500000  0.50000000  0.00000000
  0.02500000  0.52500000  0.00000000
  0.02500000  0.55000000  0.00000000
  0.02500000  0.57500000  0.00000000
  0.02500000  0.60000000  0.00000000
  0.02500000  0.62500000  0.00000000
  0.02500000  0.65000000  0.00000000
  0.02500000  0.67500000  0.00000000
  0.02500000  0.70000000  0.00000000
  0.02500000  0.72500000  0.00000000
  0.02500000  0.75000000  0.00000000
  0.02500000  0.77500000  0.00000000
  0.02500000  0.80000000  0.00000000
  0.02500000  0.82500000  0.00000000
  0.02500000  0.85000000  0.00000000
  0.02500000  0.87500000  0.00000000
  0.02500000  0.90000000  0.00000000
  0.02500000  0.92500000  0.00000000
  0.02500000  0.95000000  0.00000000
  0.02500000  0.97500000  0.00000000
  0.05000000  0.00000000  0.00000000
  0.05000000  0.02500000  0.00000000
  0.05000000  0.05000000  0.00000000
  0.05000000  0.07500000  0.00000000
  0.05000000  0.10000000  0.00000000
  0.05000000  0.12500000  0.00000000
  0.05000000  0.15000000  0.00000000
  0.05000000  0.17500000  0.00000000
  0.05000000  0.20000000  0.00000000
  0.05000000  0.22500000  0.00000000
  0.05000000  0.25000000  0.00000000
  0.05000000  0.27500000  0.00000000
  0.05000000  0.30000000  0.00000000
  0.05000000  0.32500000  0.00000000
  0.05000000  0.35000000  0.00000000
  0.05000000  0.37500000  0.00000000
  0.05000000  0.40000000  0.00000000
  0.05000000  0.42500000  0.00000000
  0.05000000  0.45000000  0.00000000
  0.05000000  0.47500000  0.00000000
  0.05000000  0.50000000  0.00000000
  0.05000000  0.52500000  0.00000000
  0.05000000  0.55000000  0.00000000
  0.05000000  0.57500000  0.00000000
  0.05000000  0.60000000  0.00000000
  0.05000000  0.62500000  0.00000000
  0.05000000  0.65000000  0.00000000
  0.05000000  0.67500000  0.00000000
  0.05000000  0.70000000  0.00000000
  0.05000000  0.72500000  0.00000000
  0.05000000  0.75000000  0.00000000
  0.05000000  0.77500000  0.00000000
  0.05000000  0.80000000  0.00000000
  0.05000000  0.82500000  0.00000000
  0.05000000  0.85000000  0.00000000
  0.05000000  0.87500000  0.00000000
  0.05000000  0.90000000  0.00000000
  0.05000000  0.92500000  0.00000000
  0.05000000  0.95000000  0.00000000
  0.05000000  0.97500000  0.00000000
  0.07500000  0.00000000  0.00000000
  0.07500000  0.02500000  0.00000000
  0.07500000  0.05000000  0.00000000
  0.07500000  0.07500000  0.00000000
  0.07500000  0.10000000  0.00000000
  0.07500000  0.12500000  0.00000000
  0.07500000  0.15000000  0.00000000
  0.07500000  0.17500000  0.00000000
  0.07500000  0.20000000  0.00000000
  0.07500000  0.22500000  0.00000000
  0.07500000  0.25000000  0.00000000
  0.07500000  0.27500000  0.00000000
  0.07500000  0.30000000  0.00000000
  0.07500000  0.32500000  0.00000000
  0.07500000  0.35000000  0.00000000
  0.07500000  0.37500000  0.00000000
  0.07500000  0.40000000  0.00000000
  0.07500000  0.42500000  0.00000000
  0.07500000  0.45000000  0.00000000
  0.07500000  0.47500000  0.00000000
  0.07500000  0.50000000  0.00000000
  0.07500000  0.52500000  0.00000000
  0.07500000  0.55000000  0.00000000
  0.07500000  0.57500000  0.00000000
  0.07500000  0.60000000  0.00000000
  0.07500000  0.62500000  0.00000000
  0.07500000  0.65000000  0.00000000
  0.07500000  0.67500000  0.00000000
  0.07500000  0.70000000  0.00000000
  0.07500000  0.72500000  0.00000000
  0.07500000  0.75000000  0.00000000
  0.07500000  0.77500000  0.00000000
  0.07500000  0.80000000  0.00000000
  0.07500000  0.82500000  0.00000000
  0.07500000  0.85000000  0.00000000
  0.07500000  0.87500000  0.00000000
  0.07500000  0.90000000  0.00000000
  0.07500000  0.92500000  0.00000000
  0.07500000  0.95000000  0.00000000
  0.07500000  0.97500000  0.00000000
  0.10000000  0.00000000  0.00000000
  0.10000000  0.02500000  0.00000000
  0.10000000  0.05000000  0.00000000
  0.10000000  0.07500000  0.00000000
  0.10000000  0.10000000  0.00000000
  0.10000000  0.12500000  0.00000000
  0.10000000  0.15000000  0.00000000
  0.10000000  0.17500000  0.00000000
  0.10000000  0.20000000  0.00000000
  0.10000000  0.22500000  0.00000000
  0.10000000  0.25000000  0.00000000
  0.10000000  0.27500000  0.00000000
  0.10000000  0.30000000  0.00000000
  0.10000000  0.32500000  0.00000000
  0.10000000  0.35000000  0.00000000
  0.10000000  0.37500000  0.00000000
  0.10000000  0.40000000  0.00000000
  0.10000000  0.42500000  0.00000000
  0.10000000  0.45000000  0.00000000
  0.10000000  0.47500000  0.00000000
  0.10000000  0.50000000  0.00000000
  0.10000000  0.52500000  0.00000000
  0.10000000  0.55000000  0.00000000
  0.10000000  0.57500000  0.00000000
  0.10000000  0.60000000  0.00000000
  0.10000000  0.62500000  0.00000000
  0.10000000  0.65000000  0.00000000
  0.10000000  0.67500000  0.00000000
  0.10000000  0.70000000  0.00000000
  0.10000000  0.72500000  0.00000000
  0.10000000  0.75000000  0.00000000
  0.10000000  0.77500000  0.00000000
  0.10000000  0.80000000  0.00000000
  0.10000000  0.82500000  0.00000000
  0.10000000  0.85000000  0.00000000
  0.10000000  0.87500000  0.00000000
  0.10000000  0.90000000  0.00000000
  0.10000000  0.92500000  0.00000000
  0.10000000  0.95000000  0.00000000
  0.10000000  0.97500000  0.00000000
  0.12500000  0.00000000  0.00000000
  0.12500000  0.02500000  0.00000000
  0.12500000  0.05000000  0.00000000
  0.12500000  0.07500000  0.00000000
  0.12500000  0.10000000  0.00000000
  0.12500000  0.12500000  0.00000000
  0.12500000  0.15000000  0.00000000
  0.12500000  0.17500000  0.00000000
  0.12500000  0.20000000  0.00000000
  0.12500000  0.22500000  0.00000000
  0.12500000  0.25000000  0.00000000
  0.12500000  0.27500000  0.00000000
  0.12500000  0.30000000  0.00000000
  0.12500000  0.32500000  0.00000000
  0.12500000  0.35000000  0.00000000
  0.12500000  0.37500000  0.00000000
  0.12500000  0.40000000  0.00000000
  0.12500000  0.42500000  0.00000000
  0.12500000  0.45000000  0.00000000
  0.12500000  0.47500000  0.00000000
  0.12500000  0.50000000  0.00000000
  0.12500000  0.52500000  0.00000000
  0.12500000  0.55000000  0.00000000
  0.12500000  0.57500000  0.00000000
  0.12500000  0.60000000  0.00000000
  0.12500000  0.62500000  0.00000000
  0.12500000  0.65000000  0.00000000
  0.12500000  0.67500000  0.00000000
  0.12500000  0.70000000  0.00000000
  0.12500000  0.72500000  0.00000000
  0.12500000  0.75000000  0.00000000
  0.12500000  0.77500000  0.00000000
  0.12500000  0.80000000  0.00000000
  0.12500000  0.82500000  0.00000000
  0.12500000  0.85000000  0.00000000
  0.12500000  0.87500000  0.00000000
  0.12500000  0.90000000  0.00000000
  0.12500000  0.92500000  0.00000000
  0.12500000  0.95000000  0.00000000
  0.12500000  0.97500000  0.00000000
  0.15000000  0.00000000  0.00000000
  0.15000000  0.02500000  0.00000000
  0.15000000  0.05000000  0.00000000
  0.15000000  0.07500000  0.00000000
  0.15000000  0.10000000  0.00000000
  0.15000000  0.12500000  0.00000000
  0.15000000  0.15000000  0.00000000
  0.15000000  0.17500000  0.00000000
  0.15000000  0.20000000  0.00000000
  0.15000000  0.22500000  0.00000000
  0.15000000  0.25000000  0.00000000
  0.15000000  0.27500000  0.00000000
  0.15000000  0.30000000  0.00000000
  0.15000000  0.32500000  0.00000000
  0.15000000  0.35000000  0.00000000
  0.15000000  0.37500000  0.00000000
  0.15000000  0.40000000  0.00000000
  0.15000000  0.42500000  0.00000000
  0.15000000  0.45000000  0.00000000
  0.15000000  0.47500000  0.00000000
  0.15000000  0.50000000  0.00000000
  0.15000000  0.52500000  0.00000000
  0.15000000  0.55000000  0.00000000
  0.15000000  0.57500000  0.00000000
  0.15000000  0.60000000  0.00000000
  0.15000000  0.62500000  0.00000000
  0.15000000  0.65000000  0.00000000
  0.15000000  0.67500000  0.00000000
  0.15000000  0.70000000  0.00000000
  0.15000000  0.72500000  0.00000000
  0.15000000  0.75000000  0.00000000
  0.15000000  0.77500000  0.00000000
  0.15000000  0.80000000  0.00000000
  0.15000000  0.82500000  0.00000000
  0.15000000  0.85000000  0.00000000
  0.15000000  0.87500000  0.00000000
  0.15000000  0.90000000  0.00000000
  0.15000000  0.92500000  0.00000000
  0.15000000  0.95000000  0.00000000
  0.15000000  0.97500000  0.00000000
  0.17500000  0.00000000  0.00000000
  0.17500000  0.02500000  0.00000000
  0.17500000  0.05000000  0.00000000
  0.17500000  0.07500000  0.00000000
  0.17500000  0.10000000  0.00000000
  0.17500000  0.12500000  0.00000000
  0.17500000  0.15000000  0.00000000
  0.17500000  0.17500000  0.00000000
  0.17500000  0.20000000  0.00000000
  0.17500000  0.22500000  0.00000000
  0.17500000  0.25000000  0.00000000
  0.17500000  0.27500000  0.00000000
  0.17500000  0.30000000  0.00000000
  0.17500000  0.32500000  0.00000000
  0.17500000  0.35000000  0.00000000
  0.17500000  0.37500000  0.00000000
  0.17500000  0.40000000  0.00000000
  0.17500000  0.42500000  0.00000000
  0.17500000  0.45000000  0.00000000
  0.17500000  0.47500000  0.00000000
  0.17500000  0.50000000  0.00000000
  0.17500000  0.52500000  0.00000000
  0.17500000  0.55000000  0.00000000
  0.17500000  0.57500000  0.00000000
  0.17500000  0.60000000  0.00000000
  0.17500000  0.62500000  0.00000000
  0.17500000  0.65000000  0.00000000
  0.17500000  0.67500000  0.00000000
  0.17500000  0.70000000  0.00000000
  0.17500000  0.72500000  0.00000000
  0.17500000  0.75000000  0.00000000
  0.17500000  0.77500000  0.00000000
  0.17500000  0.80000000  0.00000000
  0.17500000  0.82500000  0.00000000
  0.17500000  0.85000000  0.00000000
  0.17500000  0.87500000  0.00000000
  0.17500000  0.90000000  0.00000000
  0.17500000  0.92500000  0.00000000
  0.17500000  0.95000000  0.00000000
  0.17500000  0.97500000  0.00000000
  0.20000000  0.00000000  0.00000000
  0.20000000  0.02500000  0.00000000
  0.20000000  0.05000000  0.00000000
  0.20000000  0.07500000  0.00000000
  0.20000000  0.10000000  0.00000000
  0.20000000  0.12500000  0.00000000
  0.20000000  0.15000000  0.00000000
  0.20000000  0.17500000  0.00000000
  0.20000000  0.20000000  0.00000000
  0.20000000  0.22500000  0.00000000
  0.20000000  0.25000000  0.00000000
  0.20000000  0.27500000  0.00000000
  0.20000000  0.30000000  0.00000000
  0.20000000  0.32500000  0.00000000
  0.20000000  0.35000000  0.00000000
  0.20000000  0.37500000  0.00000000
  0.20000000  0.40000000  0.00000000
  0.20000000  0.42500000  0.00000000
  0.20000000  0.45000000  0.00000000
  0.20000000  0.47500000  0.00000000
  0.20000000  0.50000000  0.00000000
  0.20000000  0.52500000  0.00000000
  0.20000000  0.55000000  0.00000000
  0.20000000  0.57500000  0.00000000
  0.20000000  0.60000000  0.00000000
  0.20000000  0.62500000  0.00000000
  0.20000000  0.65000000  0.00000000
  0.20000000  0.67500000  0.00000000
  0.20000000  0.70000000  0.00000000
  0.20000000  0.72500000  0.00000000
  0.20000000  0.75000000  0.00000000
  0.20000000  0.77500000  0.00000000
  0.20000000  0.80000000  0.00000000
  0.20000000  0.82500000  0.00000000
  0.20000000  0.85000000  0.00000000
  0.20000000  0.87500000  0.00000000
  0.20000000  0.90000000  0.00000000
  0.20000000  0.92500000  0.00000000
  0.20000000  0.95000000  0.00000000
  0.20000000  0.97500000  0.00000000
  0.22500000  0.00000000  0.00000000
  0.22500000  0.02500000  0.00000000
  0.22500000  0.05000000  0.00000000
  0.22500000  0.07500000  0.00000000
  0.22500000  0.10000000  0.00000000
  0.22500000  0.12500000  0.00000000
  0.22500000  0.15000000  0.00000000
  0.22500000  0.17500000  0.00000000
  0.22500000  0.20000000  0.00000000
  0.22500000  0.22500000  0.00000000
  0.22500000  0.25000000  0.00000000
  0.22500000  0.27500000  0.00000000
  0.22500000  0.30000000  0.00000000
  0.22500000  0.32500000  0.00000000
  0.22500000  0.35000000  0.00000000
  0.22500000  0.37500000  0.00000000
  0.22500000  0.40000000  0.00000000
  0.22500000  0.42500000  0.00000000
  0.22500000  0.45000000  0.00000000
  0.22500000  0.47500000  0.00000000
  0.22500000  0.50000000  0.00000000
  0.22500000  0.52500000  0.00000000
  0.22500000  0.55000000  0.00000000
  0.22500000  0.57500000  0.00000000
  0.22500000  0.60000000  0.00000000
  0.22500000  0.62500000  0.00000000
  0.22500000  0.65000000  0.00000000
  0.22500000  0.67500000  0.00000000
  0.22500000  0.70000000  0.00000000
  0.22500000  0.72500000  0.00000000
  0.22500000  0.75000000  0.00000000
  0.22500000  0.77500000  0.00000000
  0.22500000  0.80000000  0.00000000
  0.22500000  0.82500000  0.00000000
  0.22500000  0.85000000  0.00000000
  0.22500000  0.87500000  0.00000000
  0.22500000  0.90000000  0.00000000
  0.22500000  0.92500000  0.00000000
  0.22500000  0.95000000  0.00000000
  0.22500000  0.97500000  0.00000000
  0.25000000  0.00000000  0.00000000
  0.25000000  0.02500000  0.00000000
  0.25000000  0.05000000  0.00000000
  0.25000000  0.07500000  0.00000000
  0.25000000  0.10000000  0.00000000
  0.25000000  0.12500000  0.00000000
  0.25000000  0.15000000  0.00000000
  0.25000000  0.17500000  0.00000000
  0.25000000  0.20000000  0.00000000
  0.25000000  0.22500000  0.00000000
  0.25000000  0.25000000  0.00000000
  0.25000000  0.27500000  0.00000000
  0.25000000  0.30000000  0.00000000
  0.25000000  0.32500000  0.00000000
  0.25000000  0.35000000  0.00000000
  0.25000000  0.37500000  0.00000000
  0.25000000  0.40000000  0.00000000
  0.25000000  0.42500000  0.00000000
  0.25000000  0.45000000  0.00000000
  0.25000000  0.47500000  0.00000000
  0.25000000  0.50000000  0.00000000
  0.25000000  0.52500000  0.00000000
  0.25000000  0.55000000  0.00000000
  0.25000000  0.57500000  0.00000000
  0.25000000  0.60000000  0.00000000
  0.25000000  0.62500000  0.00000000
  0.25000000  0.65000000  0.00000000
  0.25000000  0.67500000  0.00000000
  0.25000000  0.70000000  0.00000000
  0.25000000  0.72500000  0.00000000
  0.25000000  0.75000000  0.00000000
  0.25000000  0.77500000  0.00000000
  0.25000000  0.80000000  0.00000000
  0.25000000  0.82500000  0.00000000
  0.25000000  0.85000000  0.00000000
  0.25000000  0.87500000  0.00000000
  0.25000000  0.90000000  0.00000000
  0.25000000  0.92500000  0.00000000
  0.25000000  0.95000000  0.00000000
  0.25000000  0.97500000  0.00000000
  0.27500000  0.00000000  0.00000000
  0.27500000  0.02500000  0.00000000
  0.27500000  0.05000000  0.00000000
  0.27500000  0.07500000  0.00000000
  0.27500000  0.10000000  0.00000000
  0.27500000  0.12500000  0.00000000
  0.27500000  0.15000000  0.00000000
  0.27500000  0.17500000  0.00000000
  0.27500000  0.20000000  0.00000000
  0.27500000  0.22500000  0.00000000
  0.27500000  0.25000000  0.00000000
  0.27500000  0.27500000  0.00000000
  0.27500000  0.30000000  0.00000000
  0.27500000  0.32500000  0.00000000
  0.27500000  0.35000000  0.00000000
  0.27500000  0.37500000  0.00000000
  0.27500000  0.40000000  0.00000000
  0.27500000  0.42500000  0.00000000
  0.27500000  0.45000000  0.00000000
  0.27500000  0.47500000  0.00000000
  0.27500000  0.50000000  0.00000000
  0.27500000  0.52500000  0.00000000
  0.27500000  0.55000000  0.00000000
  0.27500000  0.57500000  0.00000000
  0.27500000  0.60000000  0.00000000
  0.27500000  0.62500000  0.00000000
  0.27500000  0.65000000  0.00000000
  0.27500000  0.67500000  0.00000000
  0.27500000  0.70000000  0.00000000
  0.27500000  0.72500000  0.00000000
  0.27500000  0.75000000  0.00000000
  0.27500000  0.77500000  0.00000000
  0.27500000  0.80000000  0.00000000
  0.27500000  0.82500000  0.00000000
  0.27500000  0.85000000  0.00000000
  0.27500000  0.87500000  0.00000000
  0.27500000  0.90000000  0.00000000
  0.27500000  0.92500000  0.00000000
  0.27500000  0.95000000  0.00000000
  0.27500000  0.97500000  0.00000000
  0.30000000  0.00000000  0.00000000
  0.30000000  0.02500000  0.00000000
  0.30000000  0.05000000  0.00000000
  0.30000000  0.07500000  0.00000000
  0.30000000  0.10000000  0.00000000
  0.30000000  0.12500000  0.00000000
  0.30000000  0.15000000  0.00000000
  0.30000000  0.17500000  0.00000000
  0.30000000  0.20000000  0.00000000
  0.30000000  0.22500000  0.00000000
  0.30000000  0.25000000  0.00000000
  0.30000000  0.27500000  0.00000000
  0.30000000  0.30000000  0.00000000
  0.30000000  0.32500000  0.00000000
  0.30000000  0.35000000  0.00000000
  0.30000000  0.37500000  0.00000000
  0.30000000  0.40000000  0.00000000
  0.30000000  0.42500000  0.00000000
  0.30000000  0.45000000  0.00000000
  0.30000000  0.47500000  0.00000000
  0.30000000  0.50000000  0.00000000
  0.30000000  0.52500000  0.00000000
  0.30000000  0.55000000  0.00000000
  0.30000000  0.57500000  0.00000000
  0.30000000  0.60000000  0.00000000
  0.30000000  0.62500000  0.00000000
  0.30000000  0.65000000  0.00000000
  0.30000000  0.67500000  0.00000000
  0.30000000  0.70000000  0.00000000
  0.30000000  0.72500000  0.00000000
  0.30000000  0.75000000  0.00000000
  0.30000000  0.77500000  0.00000000
  0.30000000  0.80000000  0.00000000
  0.30000000  0.82500000  0.00000000
  0.30000000  0.85000000  0.00000000
  0.30000000  0.87500000  0.00000000
  0.30000000  0.90000000  0.00000000
  0.30000000  0.92500000  0.00000000
  0.30000000  0.95000000  0.00000000
  0.30000000  0.97500000  0.00000000
  0.32500000  0.00000000  0.00000000
  0.32500000  0.02500000  0.00000000
  0.32500000  0.05000000  0.00000000
  0.32500000  0.07500000  0.00000000
  0.32500000  0.10000000  0.00000000
  0.32500000  0.12500000  0.00000000
  0.32500000  0.15000000  0.00000000
  0.32500000  0.17500000  0.00000000
  0.32500000  0.20000000  0.00000000
  0.32500000  0.22500000  0.00000000
  0.32500000  0.25000000  0.00000000
  0.32500000  0.27500000  0.00000000
  0.32500000  0.30000000  0.00000000
  0.32500000  0.32500000  0.00000000
  0.32500000  0.35000000  0.00000000
  0.32500000  0.37500000  0.00000000
  0.32500000  0.40000000  0.00000000
  0.32500000  0.42500000  0.00000000
  0.32500000  0.45000000  0.00000000
  0.32500000  0.47500000  0.00000000
  0.32500000  0.50000000  0.00000000
  0.32500000  0.52500000  0.00000000
  0.32500000  0.55000000  0.00000000
  0.32500000  0.57500000  0.00000000
  0.32500000  0.60000000  0.00000000
  0.32500000  0.62500000  0.00000000
  0.32500000  0.65000000  0.00000000
  0.32500000  0.67500000  0.00000000
  0.32500000  0.70000000  0.00000000
  0.32500000  0.72500000  0.00000000
  0.32500000  0.75000000  0.00000000
  0.32500000  0.77500000  0.00000000
  0.32500000  0.80000000  0.00000000
  0.32500000  0.82500000  0.00000000
  0.32500000  0.85000000  0.00000000
  0.32500000  0.87500000  0.00000000
  0.32500000  0.90000000  0.00000000
  0.32500000  0.92500000  0.00000000
  0.32500000  0.95000000  0.00000000
  0.32500000  0.97500000  0.00000000
  0.35000000  0.00000000  0.00000000
  0.35000000  0.02500000  0.00000000
  0.35000000  0.05000000  0.00000000
  0.35000000  0.07500000  0.00000000
  0.35000000  0.10000000  0.00000000
  0.35000000  0.12500000  0.00000000
  0.35000000  0.15000000  0.00000000
  0.35000000  0.17500000  0.00000000
  0.35000000  0.20000000  0.00000000
  0.35000000  0.22500000  0.00000000
  0.35000000  0.25000000  0.00000000
  0.35000000  0.27500000  0.00000000
  0.35000000  0.30000000  0.00000000
  0.35000000  0.32500000  0.00000000
  0.35000000  0.35000000  0.00000000
  0.35000000  0.37500000  0.00000000
  0.35000000  0.40000000  0.00000000
  0.35000000  0.42500000  0.00000000
  0.35000000  0.45000000  0.00000000
  0.35000000  0.47500000  0.00000000
  0.35000000  0.50000000  0.00000000
  0.35000000  0.52500000  0.00000000
  0.35000000  0.55000000  0.00000000
  0.35000000  0.57500000  0.00000000
  0.35000000  0.60000000  0.00000000
  0.35000000  0.62500000  0.00000000
  0.35000000  0.65000000  0.00000000
  0.35000000  0.67500000  0.00000000
  0.35000000  0.70000000  0.00000000
  0.35000000  0.72500000  0.00000000
  0.35000000  0.75000000  0.00000000
  0.35000000  0.77500000  0.00000000
  0.35000000  0.80000000  0.00000000
  0.35000000  0.82500000  0.00000000
  0.35000000  0.85000000  0.00000000
  0.35000000  0.87500000  0.00000000
  0.35000000  0.90000000  0.00000000
  0.35000000  0.92500000  0.00000000
  0.35000000  0.95000000  0.00000000
  0.35000000  0.97500000  0.00000000
  0.37500000  0.00000000  0.00000000
  0.37500000  0.02500000  0.00000000
  0.37500000  0.05000000  0.00000000
  0.37500000  0.07500000  0.00000000
  0.37500000  0.10000000  0.00000000
  0.37500000  0.12500000  0.00000000
  0.37500000  0.15000000  0.00000000
  0.37500000  0.17500000  0.00000000
  0.37500000  0.20000000  0.00000000
  0.37500000  0.22500000  0.00000000
  0.37500000  0.25000000  0.00000000
  0.37500000  0.27500000  0.00000000
  0.37500000  0.30000000  0.00000000
  0.37500000  0.32500000  0.00000000
  0.37500000  0.35000000  0.00000000
  0.37500000  0.37500000  0.00000000
  0.37500000  0.40000000  0.00000000
  0.37500000  0.42500000  0.00000000
  0.37500000  0.45000000  0.00000000
  0.37500000  0.47500000  0.00000000
  0.37500000  0.50000000  0.00000000
  0.37500000  0.52500000  0.00000000
  0.37500000  0.55000000  0.00000000
  0.37500000  0.57500000  0.00000000
  0.37500000  0.60000000  0.00000000
  0.37500000  0.62500000  0.00000000
  0.37500000  0.65000000  0.00000000
  0.37500000  0.67500000  0.00000000
  0.37500000  0.70000000  0.00000000
  0.37500000  0.72500000  0.00000000
  0.37500000  0.75000000  0.00000000
  0.37500000  0.77500000  0.00000000
  0.37500000  0.80000000  0.00000000
  0.37500000  0.82500000  0.00000000
  0.37500000  0.85000000  0.00000000
  0.37500000  0.87500000  0.00000000
  0.37500000  0.90000000  0.00000000
  0.37500000  0.92500000  0.00000000
  0.37500000  0.95000000  0.00000000
  0.37500000  0.97500000  0.00000000
  0.40000000  0.00000000  0.00000000
  0.40000000  0.02500000  0.00000000
  0.40000000  0.05000000  0.00000000
  0.40000000  0.07500000  0.00000000
  0.40000000  0.10000000  0.00000000
  0.40000000  0.12500000  0.00000000
  0.40000000  0.15000000  0.00000000
  0.40000000  0.17500000  0.00000000
  0.40000000  0.20000000  0.00000000
  0.40000000  0.22500000  0.00000000
  0.40000000  0.25000000  0.00000000
  0.40000000  0.27500000  0.00000000
  0.40000000  0.30000000  0.00000000
  0.40000000  0.32500000  0.00000000
  0.40000000  0.35000000  0.00000000
  0.40000000  0.37500000  0.00000000
  0.40000000  0.40000000  0.00000000
  0.40000000  0.42500000  0.00000000
  0.40000000  0.45000000  0.00000000
  0.40000000  0.47500000  0.00000000
  0.40000000  0.50000000  0.00000000
  0.40000000  0.52500000  0.00000000
  0.40000000  0.55000000  0.00000000
  0.40000000  0.57500000  0.00000000
  0.40000000  0.60000000  0.00000000
  0.40000000  0.62500000  0.00000000
  0.40000000  0.65000000  0.00000000
  0.40000000  0.67500000  0.00000000
  0.40000000  0.70000000  0.00000000
  0.40000000  0.72500000  0.00000000
  0.40000000  0.75000000  0.00000000
  0.40000000  0.77500000  0.00000000
  0.40000000  0.80000000  0.00000000
  0.40000000  0.82500000  0.00000000
  0.40000000  0.85000000  0.00000000
  0.40000000  0.87500000  0.00000000
  0.40000000  0.90000000  0.00000000
  0.40000000  0.92500000  0.00000000
  0.40000000  0.95000000  0.00000000
  0.40000000  0.97500000  0.00000000
  0.42500000  0.00000000  0.00000000
  0.42500000  0.02500000  0.00000000
  0.42500000  0.05000000  0.00000000
  0.42500000  0.07500000  0.00000000
  0.42500000  0.10000000  0.00000000
  0.42500000  0.12500000  0.00000000
  0.42500000  0.15000000  0.00000000
  0.42500000  0.17500000  0.00000000
  0.42500000  0.20000000  0.00000000
  0.42500000  0.22500000  0.00000000
  0.42500000  0.25000000  0.00000000
  0.42500000  0.27500000  0.00000000
  0.42500000  0.30000000  0.00000000
  0.42500000  0.32500000  0.00000000
  0.42500000  0.35000000  0.00000000
  0.42500000  0.37500000  0.00000000
  0.42500000  0.40000000  0.00000000
  0.42500000  0.42500000  0.00000000
  0.42500000  0.45000000  0.00000000
  0.42500000  0.47500000  0.00000000
  0.42500000  0.50000000  0.00000000
  0.42500000  0.52500000  0.00000000
  0.42500000  0.55000000  0.00000000
  0.42500000  0.57500000  0.00000000
  0.42500000  0.60000000  0.00000000
  0.42500000  0.62500000  0.00000000
  0.42500000  0.65000000  0.00000000
  0.42500000  0.67500000  0.00000000
  0.42500000  0.70000000  0.00000000
  0.42500000  0.72500000  0.00000000
  0.42500000  0.75000000  0.00000000
  0.42500000  0.77500000  0.00000000
  0.42500000  0.80000000  0.00000000
  0.42500000  0.82500000  0.00000000
  0.42500000  0.85000000  0.00000000
  0.42500000  0.87500000  0.00000000
  0.42500000  0.90000000  0.00000000
  0.42500000  0.92500000  0.00000000
  0.42500000  0.95000000  0.00000000
  0.42500000  0.97500000  0.00000000
  0.45000000  0.00000000  0.00000000
  0.45000000  0.02500000  0.00000000
  0.45000000  0.05000000  0.00000000
  0.45000000  0.07500000  0.00000000
  0.45000000  0.10000000  0.00000000
  0.45000000  0.12500000  0.00000000
  0.45000000  0.15000000  0.00000000
  0.45000000  0.17500000  0.00000000
  0.45000000  0.20000000  0.00000000
  0.45000000  0.22500000  0.00000000
  0.45000000  0.25000000  0.00000000
  0.45000000  0.27500000  0.00000000
  0.45000000  0.30000000  0.00000000
  0.45000000  0.32500000  0.00000000
  0.45000000  0.35000000  0.00000000
  0.45000000  0.37500000  0.00000000
  0.45000000  0.40000000  0.00000000
  0.45000000  0.42500000  0.00000000
  0.45000000  0.45000000  0.00000000
  0.45000000  0.47500000  0.00000000
  0.45000000  0.50000000  0.00000000
  0.45000000  0.52500000  0.00000000
  0.45000000  0.55000000  0.00000000
  0.45000000  0.57500000  0.00000000
  0.45000000  0.60000000  0.00000000
  0.45000000  0.62500000  0.00000000
  0.45000000  0.65000000  0.00000000
  0.45000000  0.67500000  0.00000000
  0.45000000  0.70000000  0.00000000
  0.45000000  0.72500000  0.00000000
  0.45000000  0.75000000  0.00000000
  0.45000000  0.77500000  0.00000000
  0.45000000  0.80000000  0.00000000
  0.45000000  0.82500000  0.00000000
  0.45000000  0.85000000  0.00000000
  0.45000000  0.87500000  0.00000000
  0.45000000  0.90000000  0.00000000
  0.45000000  0.92500000  0.00000000
  0.45000000  0.95000000  0.00000000
  0.45000000  0.97500000  0.00000000
  0.47500000  0.00000000  0.00000000
  0.47500000  0.02500000  0.00000000
  0.47500000  0.05000000  0.00000000
  0.47500000  0.07500000  0.00000000
  0.47500000  0.10000000  0.00000000
  0.47500000  0.12500000  0.00000000
  0.47500000  0.15000000  0.00000000
  0.47500000  0.17500000  0.00000000
  0.47500000  0.20000000  0.00000000
  0.47500000  0.22500000  0.00000000
  0.47500000  0.25000000  0.00000000
  0.47500000  0.27500000  0.00000000
  0.47500000  0.30000000  0.00000000
  0.47500000  0.32500000  0.00000000
  0.47500000  0.35000000  0.00000000
  0.47500000  0.37500000  0.00000000
  0.47500000  0.40000000  0.00000000
  0.47500000  0.42500000  0.00000000
  0.47500000  0.45000000  0.00000000
  0.47500000  0.47500000  0.00000000
  0.47500000  0.50000000  0.00000000
  0.47500000  0.52500000  0.00000000
  0.47500000  0.55000000  0.00000000
  0.47500000  0.57500000  0.00000000
  0.47500000  0.60000000  0.00000000